NAME : traveling-santa-2018-prime-paths.28765.tour
COMMENT : Length = 28765
COMMENT : Found by LKH [Keld Helsgaun] Mon Jun 27 15:57:28 2022
TYPE : TOUR
DIMENSION : 100
TOUR_SECTION
1
11
15
65
30
100
14
83
88
80
63
6
77
37
39
61
49
89
21
16
41
93
69
42
45
71
54
38
12
31
46
82
36
8
43
20
79
25
97
58
2
64
95
60
27
70
96
52
59
22
48
76
10
44
91
73
98
50
32
51
75
17
33
99
66
85
26
4
34
57
78
28
55
18
84
90
86
24
3
92
72
67
29
68
13
19
40
62
9
94
23
5
35
7
53
56
81
47
74
87
-1
EOF
